PACE2017-TrackA-master/datasharing.gr
p tw 29 37
1 2
2 3
3 4
4 5
5 6
6 7
7 8
8 9
9 10
10 11
10 12
11 12
12 13
12 14
13 14
14 15
14 17
15 16
16 17
17 18
17 19
17 20
18 21
19 20
20 21
21 22
21 23
22 23
23 24
23 25
24 25
25 26
25 27
26 27
27 28
27 29
28 29
