PACE2017-TrackA-master/datasharing.td
s td 24 3 29
b 1 1 2
b 2 2 3
b 3 3 4
b 4 4 5
b 5 5 6
b 6 6 7
b 7 7 8
b 8 8 9
b 9 9 10
b 10 10 11 12
b 11 12 13 14
b 12 17 19 20
b 13 21 22 23
b 14 23 24 25
b 15 25 26 27
b 16 27 28 29
b 17 25 27
b 18 23 25
b 19 21 23
b 20 14 15 17
b 21 15 16 17
b 22 17 18 20
b 23 18 20 21
b 24 21
1 2
2 3
3 4
4 5
5 6
6 7
7 8
8 9
9 10
10 11
11 20
12 22
13 19
14 18
15 17
16 17
17 18
18 19
19 24
20 21
21 22
22 23
23 24
